Instance name: /home/cuong/CLionProjects/uMV-FSTSP/50_dis_rand_ins/v58
Write arg val: 1

drone speed: 1 miles/minute
uav non-eligible customer: 11 
Printing tau:
0 6.82205 43.1603 45.7127 50.1516 31.3654 31.9126 50.5795 45.9523 86.1285 92.0461 0 
6.82205 0 49.9823 52.5347 56.9736 38.1875 38.7347 52.1946 52.7744 92.9505 98.8681 6.82205 
43.1603 49.9823 0 4.32109 53.8048 59.1106 68.203 93.3116 88.5371 43.1878 58.2296 43.1603 
45.7127 52.5347 4.32109 0 49.4837 54.7895 63.8819 88.9905 84.216 40.4158 53.9085 45.7127 
50.1516 56.9736 53.8048 49.4837 0 18.7862 18.239 39.5068 34.7324 35.9769 41.8945 50.1516 
31.3654 38.1875 59.1106 54.7895 18.7862 0 9.09241 34.201 29.4266 54.7631 60.6807 31.3654 
31.9126 38.7347 68.203 63.8819 18.239 9.09241 0 25.1086 20.3342 54.2159 60.1334 31.9126 
50.5795 52.1946 93.3116 88.9905 39.5068 34.201 25.1086 0 4.77441 50.1238 46.6735 50.5795 
45.9523 52.7744 88.5371 84.216 34.7324 29.4266 20.3342 4.77441 0 45.3494 46.0937 45.9523 
86.1285 92.9505 43.1878 40.4158 35.9769 54.7631 54.2159 50.1238 45.3494 0 15.0418 86.1285 
92.0461 98.8681 58.2296 53.9085 41.8945 60.6807 60.1334 46.6735 46.0937 15.0418 0 92.0461 
0 0 0 0 0 0 0 0 0 0 0 0 
Printing tau_prime:
0 1.968 16.105 15.8325 13.6187 9.38266 10.827 18.0175 17.2045 22.8386 24.7509 0 
1.968 0 17.9503 17.7252 15.2612 10.7362 11.8846 18.7414 18.0313 24.6559 26.4276 1.968 
16.105 17.9503 0 1.33076 14.3871 15.983 18.3293 24.7499 23.4886 16.1543 20.1604 16.105 
15.8325 17.7252 1.33076 0 13.174 15.0181 17.33 23.5973 22.3312 14.8683 18.8489 15.8325 
13.6187 15.2612 14.3871 13.174 0 5.17631 6.1617 10.5522 9.27688 9.94654 11.1707 13.6187 
9.38266 10.7362 15.983 15.0181 5.17631 0 2.41535 9.80002 8.70897 15.1226 16.0921 9.38266 
10.827 11.8846 18.3293 17.33 6.1617 2.41535 0 7.55423 6.55226 15.8326 16.1631 10.827 
18.0175 18.7414 24.7499 23.5973 10.5522 9.80002 7.55423 0 1.27531 17.1302 15.4824 18.0175 
17.2045 18.0313 23.4886 22.3312 9.27688 8.70897 6.55226 1.27531 0 16.0653 14.6278 17.2045 
22.8386 24.6559 16.1543 14.8683 9.94654 15.1226 15.8326 17.1302 16.0653 0 4.28612 22.8386 
24.7509 26.4276 20.1604 18.8489 11.1707 16.0921 16.1631 15.4824 14.6278 4.28612 0 24.7509 
0 0 0 0 0 0 0 0 0 0 0 0 
Version identifier: 22.1.1.0 | 2022-11-28 | 9160aff4d
CPXPARAM_MIP_Tolerances_Integrality              0
Tried aggregator 1 time.
MIP Presolve eliminated 1 rows and 12 columns.
MIP Presolve modified 20 coefficients.
Reduced MIP has 122 rows, 120 columns, and 510 nonzeros.
Reduced MIP has 110 binaries, 0 generals, 0 SOSs, and 0 indicators.
Presolve time = 0.00 sec. (0.27 ticks)
Found incumbent of value 512.681210 after 0.00 sec. (0.75 ticks)
Probing time = 0.00 sec. (0.26 ticks)
Cover probing fixed 0 vars, tightened 10 bounds.
Tried aggregator 1 time.
Detecting symmetries...
MIP Presolve eliminated 10 rows and 0 columns.
MIP Presolve modified 180 coefficients.
Reduced MIP has 112 rows, 120 columns, and 490 nonzeros.
Reduced MIP has 110 binaries, 0 generals, 0 SOSs, and 0 indicators.
Presolve time = 0.00 sec. (0.35 ticks)
Probing time = 0.00 sec. (0.26 ticks)
Clique table members: 67.
MIP emphasis: balance optimality and feasibility.
MIP search method: dynamic search.
Parallel mode: deterministic, using up to 20 threads.
Root relaxation solution time = 0.00 sec. (0.21 ticks)

        Nodes                                         Cuts/
   Node  Left     Objective  IInf  Best Integer    Best Bound    ItCnt     Gap

*     0+    0                          512.6812        0.0000           100.00%
      0     0      130.0076    17      512.6812      130.0076       26   74.64%
*     0+    0                          283.3384      130.0076            54.12%
      0     0      222.5973    19      283.3384      Cuts: 25       44   21.44%
      0     0      222.5973    15      283.3384      Cuts: 26       62   21.44%
      0     0      222.5973    20      283.3384      Cuts: 19       73   21.44%
*     0+    0                          269.7666      222.5973            17.49%
      0     0      222.5973    14      269.7666       Cuts: 8       76   17.49%
      0     0      222.5973    14      269.7666      Cuts: 24       80   17.49%
Detecting symmetries...
*     0+    0                          262.1618      222.5973            15.09%
*     0+    0                          256.7557      222.5973            13.30%
      0     0        cutoff            256.7557      256.7557       80    0.00%
Elapsed time = 0.03 sec. (9.92 ticks, tree = 0.01 MB, solutions = 5)

Clique cuts applied:  4
Implied bound cuts applied:  2
Mixed integer rounding cuts applied:  9
Multi commodity flow cuts applied:  2
Gomory fractional cuts applied:  1

Root node processing (before b&c):
  Real time             =    0.03 sec. (9.93 ticks)
Parallel b&c, 20 threads:
  Real time             =    0.00 sec. (0.00 ticks)
  Sync time (average)   =    0.00 sec.
  Wait time (average)   =    0.00 sec.
                          ------------
Total (root+branch&cut) =    0.03 sec. (9.93 ticks)

TSP solution for this instance: 0 5 4 6 8 7 10 9 3 2 1 11 
12
Warmstart X[1][0] == 1
Warmstart X[2][5] == 1
Warmstart X[3][4] == 1
Warmstart X[4][6] == 1
Warmstart X[5][8] == 1
Warmstart X[6][7] == 1
Warmstart X[7][10] == 1
Warmstart X[8][9] == 1
Warmstart X[9][3] == 1
Warmstart X[10][2] == 1
Warmstart X[11][1] == 1
---------------------------------------------
Calculate max stage gap for sortie.... 
Stage gap of 5 with smallest length = 21.6054 violated endurance constraint!
---------------------------------------------
Variable z[1][6] was set to 0.
Variable z[1][7] was set to 0.
Variable z[1][8] was set to 0.
Variable z[1][9] was set to 0.
Variable z[1][10] was set to 0.
Variable z[1][11] was set to 0.
Variable z[1][12] was set to 0.
Variable z[2][7] was set to 0.
Variable z[2][8] was set to 0.
Variable z[2][9] was set to 0.
Variable z[2][10] was set to 0.
Variable z[2][11] was set to 0.
Variable z[2][12] was set to 0.
Variable z[3][8] was set to 0.
Variable z[3][9] was set to 0.
Variable z[3][10] was set to 0.
Variable z[3][11] was set to 0.
Variable z[3][12] was set to 0.
Variable z[4][9] was set to 0.
Variable z[4][10] was set to 0.
Variable z[4][11] was set to 0.
Variable z[4][12] was set to 0.
Variable z[5][10] was set to 0.
Variable z[5][11] was set to 0.
Variable z[5][12] was set to 0.
Variable z[6][11] was set to 0.
Variable z[6][12] was set to 0.
Variable z[7][12] was set to 0.
Num constraint added = 5940
Warning:  Output names have been modified due to duplicate names or characters invalid in LP format.
Version identifier: 22.1.1.0 | 2022-11-28 | 9160aff4d
CPXPARAM_TimeLimit                               200
CPXPARAM_MIP_Tolerances_Integrality              0
1 of 1 MIP starts provided solutions.
MIP start 'm1' defined initial solution with objective 256.7557.
Tried aggregator 2 times.
MIP Presolve eliminated 7117 rows and 1860 columns.
MIP Presolve modified 2314 coefficients.
Aggregator did 33 substitutions.
Reduced MIP has 1445 rows, 2883 columns, and 49803 nonzeros.
Reduced MIP has 2862 binaries, 0 generals, 0 SOSs, and 0 indicators.
Presolve time = 0.05 sec. (148.57 ticks)
Probing fixed 356 vars, tightened 0 bounds.
Probing changed sense of 4 constraints.
Probing time = 0.04 sec. (92.64 ticks)
Tried aggregator 2 times.
MIP Presolve eliminated 54 rows and 379 columns.
MIP Presolve modified 361 coefficients.
Aggregator did 24 substitutions.
Reduced MIP has 1352 rows, 2480 columns, and 40933 nonzeros.
Reduced MIP has 2459 binaries, 0 generals, 0 SOSs, and 0 indicators.
Presolve time = 0.03 sec. (62.01 ticks)
Probing time = 0.00 sec. (5.17 ticks)
Tried aggregator 1 time.
Detecting symmetries...
MIP Presolve modified 40 coefficients.
Reduced MIP has 1350 rows, 2480 columns, and 40893 nonzeros.
Reduced MIP has 2459 binaries, 0 generals, 0 SOSs, and 0 indicators.
Presolve time = 0.02 sec. (36.18 ticks)
Probing time = 0.00 sec. (5.18 ticks)
Clique table members: 13718.
MIP emphasis: balance optimality and feasibility.
MIP search method: dynamic search.
Parallel mode: deterministic, using up to 20 threads.
Root relaxation solution time = 0.12 sec. (266.53 ticks)

        Nodes                                         Cuts/
   Node  Left     Objective  IInf  Best Integer    Best Bound    ItCnt     Gap

*     0+    0                          256.7557        6.8220            97.34%
      0     0      128.8126   350      256.7557      128.8126       30   49.83%
*     0+    0                          242.7082      128.8126            46.93%
      0     0      138.6521   271      242.7082      Cuts: 32     1390   42.87%
*     0+    0                          233.0687      138.6521            40.51%
      0     0      145.7981   326      233.0687      Cuts: 23     2476   37.44%
      0     0      147.6304   405      233.0687      Cuts: 17     3113   36.66%
      0     0      150.7966   327      233.0687      Cuts: 15     3868   35.30%
      0     0      153.6885   423      233.0687      Cuts: 20     5315   34.06%
Detecting symmetries...
      0     0      154.3173   419      233.0687      Cuts: 16     5783   33.79%
      0     0      154.7954   368      233.0687       Cuts: 8     6119   33.58%
      0     0      155.1302   398      233.0687       Cuts: 3     6375   33.44%
      0     0      155.4263   408      233.0687       Cuts: 6     6735   33.31%
      0     0      155.7921   438      233.0687      Cuts: 11     7266   33.16%
      0     0      155.8124   422      233.0687       Cuts: 4     7362   33.15%
      0     0      156.1165   446      233.0687   ZeroHalf: 9     7665   33.02%
      0     0      156.1712   469      233.0687       Cuts: 5     7775   32.99%
      0     0      156.2008   465      233.0687       Cuts: 2     7869   32.98%
      0     0      156.2562   472      233.0687   ZeroHalf: 1     7967   32.96%
      0     0      156.3095   470      233.0687       Cuts: 2     8063   32.93%
      0     0      156.4225   459      233.0687   ZeroHalf: 3     8206   32.89%
      0     0      157.9058   349      233.0687       Cuts: 4     8892   32.25%
      0     0      164.1578   417      233.0687      Cuts: 13     9657   29.57%
      0     0      165.9586   316      233.0687       Cuts: 5    10164   28.79%
      0     0      166.9373   345      233.0687       Cuts: 7    10619   28.37%
      0     0      171.2143   310      233.0687       Cuts: 9    11445   26.54%
      0     0      171.3677   284      233.0687       Cuts: 6    11631   26.47%
      0     0      171.3917   348      233.0687       Cuts: 3    11765   26.46%
      0     0      171.5216   324      233.0687   ZeroHalf: 1    11941   26.41%
      0     0      171.5418   354      233.0687       Cuts: 2    11980   26.40%
Detecting symmetries...
      0     2      171.8427   334      233.0687      171.5418    12258   26.40%
Elapsed time = 2.20 sec. (3891.38 ticks, tree = 0.02 MB, solutions = 3)
      3     1        cutoff            233.0687      174.9183    14785   24.95%
      5     3      182.6418   242      233.0687      178.0943    17699   23.59%
     34    15      192.6802   159      233.0687      183.2570    26280   21.37%
    221    82        cutoff            233.0687      183.8897    75494   21.10%
    655   131        cutoff            233.0687      184.9280   137860   20.66%
    837   144    infeasible            233.0687      185.2277   184025   20.53%
    908   144      225.7093   134      233.0687      185.2277   194647   20.53%
*   966   113      integral     0      232.6677      185.2277   221917   20.39%
   1075    94        cutoff            232.6677      185.2277   254444   20.39%
   1306   137      224.4106   196      232.6677      186.3833   321383   19.89%
*  1464+  165                          227.3433      187.6898            17.44%
   2117    53      217.4593    83      227.3433      188.6727   510442   17.01%
Elapsed time = 5.00 sec. (7088.29 ticks, tree = 0.04 MB, solutions = 5)
*  2516+   19                          227.3432      192.6084            15.28%
   2728    17      225.3689   127      227.3432      193.9088   683564   14.71%
   3130    16        cutoff            227.3432      197.8032   799143   12.99%

GUB cover cuts applied:  10
Cover cuts applied:  63
Implied bound cuts applied:  34
Flow cuts applied:  3
Zero-half cuts applied:  41
Gomory fractional cuts applied:  4

Root node processing (before b&c):
  Real time             =    2.14 sec. (3773.93 ticks)
Parallel b&c, 20 threads:
  Real time             =    4.68 sec. (5837.21 ticks)
  Sync time (average)   =    2.17 sec.
  Wait time (average)   =    0.00 sec.
                          ------------
Total (root+branch&cut) =    6.82 sec. (9611.15 ticks)
Feasible solution found!
Truck nodes:
Stage 1 at customer 0 with arrival time is: 0
Stage 1 at customer 0 with departure time is: 0
Stage 2 at customer 5 with arrival time is: 31.3654
Stage 2 at customer 5 with departure time is: 32.3654
Stage 3 at customer 6 with arrival time is: 41.4578
Stage 3 at customer 6 with departure time is: 49.6266
Stage 4 at customer 4 with arrival time is: 67.8656
Stage 4 at customer 4 with departure time is: 68.8656
Stage 5 at customer 10 with arrival time is: 110.76
Stage 5 at customer 10 with departure time is: 110.76
Stage 6 at customer 9 with arrival time is: 125.802
Stage 6 at customer 9 with departure time is: 125.802
Stage 7 at customer 3 with arrival time is: 166.218
Stage 7 at customer 3 with departure time is: 166.218
Stage 8 at customer 2 with arrival time is: 170.539
Stage 8 at customer 2 with departure time is: 170.539
Stage 9 at customer 1 with arrival time is: 220.521
Stage 9 at customer 1 with departure time is: 220.521
Stage 10 at customer 11 with arrival time is: 227.343
Stage 10 at customer 11 with departure time is: 227.343
Truck arcs:
Arc 1 connecting 0 and 5 with cost 31.3654 
Arc 2 connecting 5 and 6 with cost 9.09241 
Arc 3 connecting 6 and 4 with cost 18.239 
Arc 4 connecting 4 and 10 with cost 41.8945 
Arc 5 connecting 10 and 9 with cost 15.0418 
Arc 6 connecting 9 and 3 with cost 40.4158 
Arc 7 connecting 3 and 2 with cost 4.32109 
Arc 8 connecting 2 and 1 with cost 49.9823 
Arc 9 connecting 1 and 11 with cost 6.82205 
Customer 7 served by drone.
Drone fly from 6 at stage 3 to serve 7 and then fly back to 4 at stage 4. 
Truck arcs during this sortie: 6--->4
Truck travel time from stage 3 to 4 is: 18.239
Total drone travel time: 18.1064
Drone arrival time: 67.7331
Truck arrival time: 67.8656
Truck departure time = max(d/a, t/a) plus (sl/sr): 68.8656
Customer 8 served by drone.
Drone fly from 5 at stage 2 to serve 8 and then fly back to 6 at stage 3. 
Truck arcs during this sortie: 5--->6
Truck travel time from stage 2 to 3 is: 9.09241
Total drone travel time: 15.2612
Drone arrival time: 47.6266
Truck arrival time: 41.4578
Truck departure time = max(d/a, t/a) plus (sl/sr): 49.6266
Done!
-------------------------Re-calculated objective-----------------------
227.343
------------------------------------------------------------------------
Solve time: 6.824
OBJECTIVE VALUE: 227.343, NUMBER OF SORTIES: 2.
Number of revisit: 0
In write mode
